100
32
13
20
29
9
18
11
4
19
18
6
5
17
20
6
27
8
17
9
10
12
17
2
1
2
1
1
2
17
3
2
3
3
1
17
4
2
1
3
7
2
19
4
4
17
2
5
2
4
2
8
2
4
1
1
1
18
5
1
8
3
17
1
2
4
1
1
1
2
4
2
3
4
1
1
17
9
3
17
2
17
1
4
4
1
1
1
1
1
3
1
1
2
1
2
3
17
4
1
1
1